(set-logic QF_S)
(declare-fun var_0xINPUT_94844 () String)
(assert (and (= (len var_0xINPUT_94844) 0) (= (len var_0xINPUT_94844) 0) (not (= var_0xINPUT_94844 "Example:")) (not (= var_0xINPUT_94844 "VEECEXk2pV"))))
(check-sat var_0xINPUT_94844)